c helpp
p cnf 541 1622
1 290 141 0
1 -290 -141 0
-1 290 -141 0
-1 -290 141 0
2 298 101 0
2 -298 -101 0
-2 298 -101 0
-2 -298 101 0
3 306 146 0
3 -306 -146 0
-3 306 -146 0
-3 -306 146 0
4 314 81 0
4 -314 -81 0
-4 314 -81 0
-4 -314 81 0
5 322 151 0
5 -322 -151 0
-5 322 -151 0
-5 -322 151 0
6 330 106 0
6 -330 -106 0
-6 330 -106 0
-6 -330 106 0
7 338 156 0
7 -338 -156 0
-7 338 -156 0
-7 -338 156 0
8 346 71 0
8 -346 -71 0
-8 346 -71 0
-8 -346 71 0
9 354 161 0
9 -354 -161 0
-9 354 -161 0
-9 -354 161 0
10 362 111 0
10 -362 -111 0
-10 362 -111 0
-10 -362 111 0
11 370 166 0
11 -370 -166 0
-11 370 -166 0
-11 -370 166 0
12 378 86 0
12 -378 -86 0
-12 378 -86 0
-12 -378 86 0
13 386 171 0
13 -386 -171 0
-13 386 -171 0
-13 -386 171 0
14 394 116 0
14 -394 -116 0
-14 394 -116 0
-14 -394 116 0
15 402 176 0
15 -402 -176 0
-15 402 -176 0
-15 -402 176 0
16 410 66 0
16 -410 -66 0
-16 410 -66 0
-16 -410 66 0
17 418 181 0
17 -418 -181 0
-17 418 -181 0
-17 -418 181 0
18 426 121 0
18 -426 -121 0
-18 426 -121 0
-18 -426 121 0
19 434 186 0
19 -434 -186 0
-19 434 -186 0
-19 -434 186 0
20 442 91 0
20 -442 -91 0
-20 442 -91 0
-20 -442 91 0
21 450 191 0
21 -450 -191 0
-21 450 -191 0
-21 -450 191 0
22 458 126 0
22 -458 -126 0
-22 458 -126 0
-22 -458 126 0
23 466 196 0
23 -466 -196 0
-23 466 -196 0
-23 -466 196 0
24 474 76 0
24 -474 -76 0
-24 474 -76 0
-24 -474 76 0
25 482 201 0
25 -482 -201 0
-25 482 -201 0
-25 -482 201 0
26 490 131 0
26 -490 -131 0
-26 490 -131 0
-26 -490 131 0
27 498 206 0
27 -498 -206 0
-27 498 -206 0
-27 -498 206 0
28 506 96 0
28 -506 -96 0
-28 506 -96 0
-28 -506 96 0
29 514 211 0
29 -514 -211 0
-29 514 -211 0
-29 -514 211 0
30 522 136 0
30 -522 -136 0
-30 522 -136 0
-30 -522 136 0
31 530 216 0
31 -530 -216 0
-31 530 -216 0
-31 -530 216 0
32 540 -538 0
32 -540 538 0
-32 540 538 0
-32 -540 -538 0
33 291 -290 0
33 -291 290 0
-33 291 290 0
-33 -291 -290 0
34 299 -298 0
34 -299 298 0
-34 299 298 0
-34 -299 -298 0
35 307 -306 0
35 -307 306 0
-35 307 306 0
-35 -307 -306 0
36 315 -314 0
36 -315 314 0
-36 315 314 0
-36 -315 -314 0
37 323 -322 0
37 -323 322 0
-37 323 322 0
-37 -323 -322 0
38 331 -330 0
38 -331 330 0
-38 331 330 0
-38 -331 -330 0
39 339 -338 0
39 -339 338 0
-39 339 338 0
-39 -339 -338 0
40 347 -346 0
40 -347 346 0
-40 347 346 0
-40 -347 -346 0
41 355 -354 0
41 -355 354 0
-41 355 354 0
-41 -355 -354 0
42 363 -362 0
42 -363 362 0
-42 363 362 0
-42 -363 -362 0
43 371 -370 0
43 -371 370 0
-43 371 370 0
-43 -371 -370 0
44 379 -378 0
44 -379 378 0
-44 379 378 0
-44 -379 -378 0
45 387 -386 0
45 -387 386 0
-45 387 386 0
-45 -387 -386 0
46 395 -394 0
46 -395 394 0
-46 395 394 0
-46 -395 -394 0
47 403 -402 0
47 -403 402 0
-47 403 402 0
-47 -403 -402 0
48 411 -410 0
48 -411 410 0
-48 411 410 0
-48 -411 -410 0
49 419 -418 0
49 -419 418 0
-49 419 418 0
-49 -419 -418 0
50 427 -426 0
50 -427 426 0
-50 427 426 0
-50 -427 -426 0
51 435 -434 0
51 -435 434 0
-51 435 434 0
-51 -435 -434 0
52 443 -442 0
52 -443 442 0
-52 443 442 0
-52 -443 -442 0
53 451 -450 0
53 -451 450 0
-53 451 450 0
-53 -451 -450 0
54 459 -458 0
54 -459 458 0
-54 459 458 0
-54 -459 -458 0
55 467 -466 0
55 -467 466 0
-55 467 466 0
-55 -467 -466 0
56 475 -474 0
56 -475 474 0
-56 475 474 0
-56 -475 -474 0
57 483 -482 0
57 -483 482 0
-57 483 482 0
-57 -483 -482 0
58 491 -490 0
58 -491 490 0
-58 491 490 0
-58 -491 -490 0
59 499 -498 0
59 -499 498 0
-59 499 498 0
-59 -499 -498 0
60 507 -506 0
60 -507 506 0
-60 507 506 0
-60 -507 -506 0
61 515 -514 0
61 -515 514 0
-61 515 514 0
-61 -515 -514 0
62 523 -522 0
62 -523 522 0
-62 523 522 0
-62 -523 -522 0
63 531 -530 0
63 -531 530 0
-63 531 530 0
-63 -531 -530 0
64 539 -538 0
64 -539 538 0
-64 539 538 0
-64 -539 -538 0
65 289 -221 0
65 -289 221 0
-65 289 221 0
-65 -289 -221 0
65 0
-66 -67 0
-66 78 0
66 -78 67 0
-67 80 0
-67 540 0
67 -540 -80 0
-68 -69 0
-68 73 0
68 -73 69 0
-69 75 0
-69 -78 0
69 78 -75 0
-70 75 0
-70 80 0
70 -80 -75 0
-71 -72 0
-71 88 0
71 -88 72 0
-72 -66 0
-72 90 0
72 -90 66 0
-73 -74 0
-73 83 0
73 -83 74 0
-74 85 0
-74 -88 0
74 88 -85 0
-75 85 0
-75 90 0
75 -90 -85 0
-76 -77 0
-76 98 0
76 -98 77 0
-77 100 0
-77 540 0
77 -540 -100 0
-78 -79 0
-78 93 0
78 -93 79 0
-79 95 0
-79 -98 0
79 98 -95 0
-80 95 0
-80 100 0
80 -100 -95 0
-81 -82 0
-81 108 0
81 -108 82 0
-82 -71 0
-82 110 0
82 -110 71 0
-83 -84 0
-83 103 0
83 -103 84 0
-84 105 0
-84 -108 0
84 108 -105 0
-85 105 0
-85 110 0
85 -110 -105 0
-86 -87 0
-86 118 0
86 -118 87 0
-87 -66 0
-87 120 0
87 -120 66 0
-88 -89 0
-88 113 0
88 -113 89 0
-89 115 0
-89 -118 0
89 118 -115 0
-90 115 0
-90 120 0
90 -120 -115 0
-91 -92 0
-91 128 0
91 -128 92 0
-92 -76 0
-92 130 0
92 -130 76 0
-93 -94 0
-93 123 0
93 -123 94 0
-94 125 0
-94 -128 0
94 128 -125 0
-95 125 0
-95 130 0
95 -130 -125 0
-96 -97 0
-96 138 0
96 -138 97 0
-97 140 0
-97 540 0
97 -540 -140 0
-98 -99 0
-98 133 0
98 -133 99 0
-99 135 0
-99 -138 0
99 138 -135 0
-100 135 0
-100 140 0
100 -140 -135 0
-101 -102 0
-101 148 0
101 -148 102 0
-102 -81 0
-102 150 0
102 -150 81 0
-103 -104 0
-103 143 0
103 -143 104 0
-104 145 0
-104 -148 0
104 148 -145 0
-105 145 0
-105 150 0
105 -150 -145 0
-106 -107 0
-106 158 0
106 -158 107 0
-107 -71 0
-107 160 0
107 -160 71 0
-108 -109 0
-108 153 0
108 -153 109 0
-109 155 0
-109 -158 0
109 158 -155 0
-110 155 0
-110 160 0
110 -160 -155 0
-111 -112 0
-111 168 0
111 -168 112 0
-112 -86 0
-112 170 0
112 -170 86 0
-113 -114 0
-113 163 0
113 -163 114 0
-114 165 0
-114 -168 0
114 168 -165 0
-115 165 0
-115 170 0
115 -170 -165 0
-116 -117 0
-116 178 0
116 -178 117 0
-117 -66 0
-117 180 0
117 -180 66 0
-118 -119 0
-118 173 0
118 -173 119 0
-119 175 0
-119 -178 0
119 178 -175 0
-120 175 0
-120 180 0
120 -180 -175 0
-121 -122 0
-121 188 0
121 -188 122 0
-122 -91 0
-122 190 0
122 -190 91 0
-123 -124 0
-123 183 0
123 -183 124 0
-124 185 0
-124 -188 0
124 188 -185 0
-125 185 0
-125 190 0
125 -190 -185 0
-126 -127 0
-126 198 0
126 -198 127 0
-127 -76 0
-127 200 0
127 -200 76 0
-128 -129 0
-128 193 0
128 -193 129 0
-129 195 0
-129 -198 0
129 198 -195 0
-130 195 0
-130 200 0
130 -200 -195 0
-131 -132 0
-131 208 0
131 -208 132 0
-132 -96 0
-132 210 0
132 -210 96 0
-133 -134 0
-133 203 0
133 -203 134 0
-134 205 0
-134 -208 0
134 208 -205 0
-135 205 0
-135 210 0
135 -210 -205 0
-136 -137 0
-136 218 0
136 -218 137 0
-137 220 0
-137 540 0
137 -540 -220 0
-138 -139 0
-138 213 0
138 -213 139 0
-139 215 0
-139 -218 0
139 218 -215 0
-140 215 0
-140 220 0
140 -220 -215 0
-141 -142 0
-141 -296 0
141 296 142 0
-142 -101 0
-142 225 0
142 -225 101 0
-143 -144 0
-143 -222 0
143 222 144 0
-144 223 0
-144 296 0
144 -296 -223 0
-145 223 0
-145 225 0
145 -225 -223 0
-146 -147 0
-146 -312 0
146 312 147 0
-147 -81 0
-147 229 0
147 -229 81 0
-148 -149 0
-148 -304 0
148 304 149 0
-149 227 0
-149 312 0
149 -312 -227 0
-150 227 0
-150 229 0
150 -229 -227 0
-151 -152 0
-151 -328 0
151 328 152 0
-152 -106 0
-152 233 0
152 -233 106 0
-153 -154 0
-153 -320 0
153 320 154 0
-154 231 0
-154 328 0
154 -328 -231 0
-155 231 0
-155 233 0
155 -233 -231 0
-156 -157 0
-156 -344 0
156 344 157 0
-157 -71 0
-157 237 0
157 -237 71 0
-158 -159 0
-158 -336 0
158 336 159 0
-159 235 0
-159 344 0
159 -344 -235 0
-160 235 0
-160 237 0
160 -237 -235 0
-161 -162 0
-161 -360 0
161 360 162 0
-162 -111 0
-162 241 0
162 -241 111 0
-163 -164 0
-163 -352 0
163 352 164 0
-164 239 0
-164 360 0
164 -360 -239 0
-165 239 0
-165 241 0
165 -241 -239 0
-166 -167 0
-166 -376 0
166 376 167 0
-167 -86 0
-167 245 0
167 -245 86 0
-168 -169 0
-168 -368 0
168 368 169 0
-169 243 0
-169 376 0
169 -376 -243 0
-170 243 0
-170 245 0
170 -245 -243 0
-171 -172 0
-171 -392 0
171 392 172 0
-172 -116 0
-172 249 0
172 -249 116 0
-173 -174 0
-173 -384 0
173 384 174 0
-174 247 0
-174 392 0
174 -392 -247 0
-175 247 0
-175 249 0
175 -249 -247 0
-176 -177 0
-176 -408 0
176 408 177 0
-177 -66 0
-177 253 0
177 -253 66 0
-178 -179 0
-178 -400 0
178 400 179 0
-179 251 0
-179 408 0
179 -408 -251 0
-180 251 0
-180 253 0
180 -253 -251 0
-181 -182 0
-181 -424 0
181 424 182 0
-182 -121 0
-182 257 0
182 -257 121 0
-183 -184 0
-183 -416 0
183 416 184 0
-184 255 0
-184 424 0
184 -424 -255 0
-185 255 0
-185 257 0
185 -257 -255 0
-186 -187 0
-186 -440 0
186 440 187 0
-187 -91 0
-187 261 0
187 -261 91 0
-188 -189 0
-188 -432 0
188 432 189 0
-189 259 0
-189 440 0
189 -440 -259 0
-190 259 0
-190 261 0
190 -261 -259 0
-191 -192 0
-191 -456 0
191 456 192 0
-192 -126 0
-192 265 0
192 -265 126 0
-193 -194 0
-193 -448 0
193 448 194 0
-194 263 0
-194 456 0
194 -456 -263 0
-195 263 0
-195 265 0
195 -265 -263 0
-196 -197 0
-196 -472 0
196 472 197 0
-197 -76 0
-197 269 0
197 -269 76 0
-198 -199 0
-198 -464 0
198 464 199 0
-199 267 0
-199 472 0
199 -472 -267 0
-200 267 0
-200 269 0
200 -269 -267 0
-201 -202 0
-201 -488 0
201 488 202 0
-202 -131 0
-202 273 0
202 -273 131 0
-203 -204 0
-203 -480 0
203 480 204 0
-204 271 0
-204 488 0
204 -488 -271 0
-205 271 0
-205 273 0
205 -273 -271 0
-206 -207 0
-206 -504 0
206 504 207 0
-207 -96 0
-207 277 0
207 -277 96 0
-208 -209 0
-208 -496 0
208 496 209 0
-209 275 0
-209 504 0
209 -504 -275 0
-210 275 0
-210 277 0
210 -277 -275 0
-211 -212 0
-211 -520 0
211 520 212 0
-212 -136 0
-212 281 0
212 -281 136 0
-213 -214 0
-213 -512 0
213 512 214 0
-214 279 0
-214 520 0
214 -520 -279 0
-215 279 0
-215 281 0
215 -281 -279 0
-216 -217 0
-216 -536 0
216 536 217 0
-217 285 0
-217 540 0
217 -540 -285 0
-218 -219 0
-218 -528 0
218 528 219 0
-219 283 0
-219 536 0
219 -536 -283 0
-220 283 0
-220 285 0
220 -285 -283 0
221 291 -1 0
221 -291 1 0
-221 291 1 0
-221 -291 -1 0
-222 290 0
-222 291 0
222 -291 -290 0
223 -290 0
223 -291 0
-223 291 290 0
224 299 -2 0
224 -299 2 0
-224 299 2 0
-224 -299 -2 0
225 -298 0
225 -299 0
-225 299 298 0
226 307 -3 0
226 -307 3 0
-226 307 3 0
-226 -307 -3 0
227 -306 0
227 -307 0
-227 307 306 0
228 315 -4 0
228 -315 4 0
-228 315 4 0
-228 -315 -4 0
229 -314 0
229 -315 0
-229 315 314 0
230 323 -5 0
230 -323 5 0
-230 323 5 0
-230 -323 -5 0
231 -322 0
231 -323 0
-231 323 322 0
232 331 -6 0
232 -331 6 0
-232 331 6 0
-232 -331 -6 0
233 -330 0
233 -331 0
-233 331 330 0
234 339 -7 0
234 -339 7 0
-234 339 7 0
-234 -339 -7 0
235 -338 0
235 -339 0
-235 339 338 0
236 347 -8 0
236 -347 8 0
-236 347 8 0
-236 -347 -8 0
237 -346 0
237 -347 0
-237 347 346 0
238 355 -9 0
238 -355 9 0
-238 355 9 0
-238 -355 -9 0
239 -354 0
239 -355 0
-239 355 354 0
240 363 -10 0
240 -363 10 0
-240 363 10 0
-240 -363 -10 0
241 -362 0
241 -363 0
-241 363 362 0
242 371 -11 0
242 -371 11 0
-242 371 11 0
-242 -371 -11 0
243 -370 0
243 -371 0
-243 371 370 0
244 379 -12 0
244 -379 12 0
-244 379 12 0
-244 -379 -12 0
245 -378 0
245 -379 0
-245 379 378 0
246 387 -13 0
246 -387 13 0
-246 387 13 0
-246 -387 -13 0
247 -386 0
247 -387 0
-247 387 386 0
248 395 -14 0
248 -395 14 0
-248 395 14 0
-248 -395 -14 0
249 -394 0
249 -395 0
-249 395 394 0
250 403 -15 0
250 -403 15 0
-250 403 15 0
-250 -403 -15 0
251 -402 0
251 -403 0
-251 403 402 0
252 411 -16 0
252 -411 16 0
-252 411 16 0
-252 -411 -16 0
253 -410 0
253 -411 0
-253 411 410 0
254 419 -17 0
254 -419 17 0
-254 419 17 0
-254 -419 -17 0
255 -418 0
255 -419 0
-255 419 418 0
256 427 -18 0
256 -427 18 0
-256 427 18 0
-256 -427 -18 0
257 -426 0
257 -427 0
-257 427 426 0
258 435 -19 0
258 -435 19 0
-258 435 19 0
-258 -435 -19 0
259 -434 0
259 -435 0
-259 435 434 0
260 443 -20 0
260 -443 20 0
-260 443 20 0
-260 -443 -20 0
261 -442 0
261 -443 0
-261 443 442 0
262 451 -21 0
262 -451 21 0
-262 451 21 0
-262 -451 -21 0
263 -450 0
263 -451 0
-263 451 450 0
264 459 -22 0
264 -459 22 0
-264 459 22 0
-264 -459 -22 0
265 -458 0
265 -459 0
-265 459 458 0
266 467 -23 0
266 -467 23 0
-266 467 23 0
-266 -467 -23 0
267 -466 0
267 -467 0
-267 467 466 0
268 475 -24 0
268 -475 24 0
-268 475 24 0
-268 -475 -24 0
269 -474 0
269 -475 0
-269 475 474 0
270 483 -25 0
270 -483 25 0
-270 483 25 0
-270 -483 -25 0
271 -482 0
271 -483 0
-271 483 482 0
272 491 -26 0
272 -491 26 0
-272 491 26 0
-272 -491 -26 0
273 -490 0
273 -491 0
-273 491 490 0
274 499 -27 0
274 -499 27 0
-274 499 27 0
-274 -499 -27 0
275 -498 0
275 -499 0
-275 499 498 0
276 507 -28 0
276 -507 28 0
-276 507 28 0
-276 -507 -28 0
277 -506 0
277 -507 0
-277 507 506 0
278 515 -29 0
278 -515 29 0
-278 515 29 0
-278 -515 -29 0
279 -514 0
279 -515 0
-279 515 514 0
280 523 -30 0
280 -523 30 0
-280 523 30 0
-280 -523 -30 0
281 -522 0
281 -523 0
-281 523 522 0
282 531 -31 0
282 -531 31 0
-282 531 31 0
-282 -531 -31 0
283 -530 0
283 -531 0
-283 531 530 0
284 539 -32 0
284 -539 32 0
-284 539 32 0
-284 -539 -32 0
285 -538 0
285 -539 0
-285 539 538 0
286 -222 0
286 -287 0
286 -288 0
-286 288 287 222 0
-287 291 0
-287 293 0
287 -293 -291 0
-288 290 0
-288 293 0
288 -293 -290 0
289 293 -33 0
289 -293 33 0
-289 293 33 0
-289 -293 -33 0
291 540 -292 0
291 -540 292 0
-291 540 292 0
-291 -540 -292 0
293 -294 0
293 -295 0
293 -296 0
-293 296 295 294 0
-294 299 0
-294 301 0
294 -301 -299 0
-295 298 0
-295 301 0
295 -301 -298 0
-296 298 0
-296 299 0
296 -299 -298 0
297 301 -34 0
297 -301 34 0
-297 301 34 0
-297 -301 -34 0
299 540 -300 0
299 -540 300 0
-299 540 300 0
-299 -540 -300 0
301 -302 0
301 -303 0
301 -304 0
-301 304 303 302 0
-302 307 0
-302 309 0
302 -309 -307 0
-303 306 0
-303 309 0
303 -309 -306 0
-304 306 0
-304 307 0
304 -307 -306 0
305 309 -35 0
305 -309 35 0
-305 309 35 0
-305 -309 -35 0
307 540 -308 0
307 -540 308 0
-307 540 308 0
-307 -540 -308 0
309 -310 0
309 -311 0
309 -312 0
-309 312 311 310 0
-310 315 0
-310 317 0
310 -317 -315 0
-311 314 0
-311 317 0
311 -317 -314 0
-312 314 0
-312 315 0
312 -315 -314 0
313 317 -36 0
313 -317 36 0
-313 317 36 0
-313 -317 -36 0
315 540 -316 0
315 -540 316 0
-315 540 316 0
-315 -540 -316 0
317 -318 0
317 -319 0
317 -320 0
-317 320 319 318 0
-318 323 0
-318 325 0
318 -325 -323 0
-319 322 0
-319 325 0
319 -325 -322 0
-320 322 0
-320 323 0
320 -323 -322 0
321 325 -37 0
321 -325 37 0
-321 325 37 0
-321 -325 -37 0
323 540 -324 0
323 -540 324 0
-323 540 324 0
-323 -540 -324 0
325 -326 0
325 -327 0
325 -328 0
-325 328 327 326 0
-326 331 0
-326 333 0
326 -333 -331 0
-327 330 0
-327 333 0
327 -333 -330 0
-328 330 0
-328 331 0
328 -331 -330 0
329 333 -38 0
329 -333 38 0
-329 333 38 0
-329 -333 -38 0
331 540 -332 0
331 -540 332 0
-331 540 332 0
-331 -540 -332 0
333 -334 0
333 -335 0
333 -336 0
-333 336 335 334 0
-334 339 0
-334 341 0
334 -341 -339 0
-335 338 0
-335 341 0
335 -341 -338 0
-336 338 0
-336 339 0
336 -339 -338 0
337 341 -39 0
337 -341 39 0
-337 341 39 0
-337 -341 -39 0
339 540 -340 0
339 -540 340 0
-339 540 340 0
-339 -540 -340 0
341 -342 0
341 -343 0
341 -344 0
-341 344 343 342 0
-342 347 0
-342 349 0
342 -349 -347 0
-343 346 0
-343 349 0
343 -349 -346 0
-344 346 0
-344 347 0
344 -347 -346 0
345 349 -40 0
345 -349 40 0
-345 349 40 0
-345 -349 -40 0
347 540 -348 0
347 -540 348 0
-347 540 348 0
-347 -540 -348 0
349 -350 0
349 -351 0
349 -352 0
-349 352 351 350 0
-350 355 0
-350 357 0
350 -357 -355 0
-351 354 0
-351 357 0
351 -357 -354 0
-352 354 0
-352 355 0
352 -355 -354 0
353 357 -41 0
353 -357 41 0
-353 357 41 0
-353 -357 -41 0
355 540 -356 0
355 -540 356 0
-355 540 356 0
-355 -540 -356 0
357 -358 0
357 -359 0
357 -360 0
-357 360 359 358 0
-358 363 0
-358 365 0
358 -365 -363 0
-359 362 0
-359 365 0
359 -365 -362 0
-360 362 0
-360 363 0
360 -363 -362 0
361 365 -42 0
361 -365 42 0
-361 365 42 0
-361 -365 -42 0
363 540 -364 0
363 -540 364 0
-363 540 364 0
-363 -540 -364 0
365 -366 0
365 -367 0
365 -368 0
-365 368 367 366 0
-366 371 0
-366 373 0
366 -373 -371 0
-367 370 0
-367 373 0
367 -373 -370 0
-368 370 0
-368 371 0
368 -371 -370 0
369 373 -43 0
369 -373 43 0
-369 373 43 0
-369 -373 -43 0
371 540 -372 0
371 -540 372 0
-371 540 372 0
-371 -540 -372 0
373 -374 0
373 -375 0
373 -376 0
-373 376 375 374 0
-374 379 0
-374 381 0
374 -381 -379 0
-375 378 0
-375 381 0
375 -381 -378 0
-376 378 0
-376 379 0
376 -379 -378 0
377 381 -44 0
377 -381 44 0
-377 381 44 0
-377 -381 -44 0
379 540 -380 0
379 -540 380 0
-379 540 380 0
-379 -540 -380 0
381 -382 0
381 -383 0
381 -384 0
-381 384 383 382 0
-382 387 0
-382 389 0
382 -389 -387 0
-383 386 0
-383 389 0
383 -389 -386 0
-384 386 0
-384 387 0
384 -387 -386 0
385 389 -45 0
385 -389 45 0
-385 389 45 0
-385 -389 -45 0
387 540 -388 0
387 -540 388 0
-387 540 388 0
-387 -540 -388 0
389 -390 0
389 -391 0
389 -392 0
-389 392 391 390 0
-390 395 0
-390 397 0
390 -397 -395 0
-391 394 0
-391 397 0
391 -397 -394 0
-392 394 0
-392 395 0
392 -395 -394 0
393 397 -46 0
393 -397 46 0
-393 397 46 0
-393 -397 -46 0
395 540 -396 0
395 -540 396 0
-395 540 396 0
-395 -540 -396 0
397 -398 0
397 -399 0
397 -400 0
-397 400 399 398 0
-398 403 0
-398 405 0
398 -405 -403 0
-399 402 0
-399 405 0
399 -405 -402 0
-400 402 0
-400 403 0
400 -403 -402 0
401 405 -47 0
401 -405 47 0
-401 405 47 0
-401 -405 -47 0
403 540 -404 0
403 -540 404 0
-403 540 404 0
-403 -540 -404 0
405 -406 0
405 -407 0
405 -408 0
-405 408 407 406 0
-406 411 0
-406 413 0
406 -413 -411 0
-407 410 0
-407 413 0
407 -413 -410 0
-408 410 0
-408 411 0
408 -411 -410 0
409 413 -48 0
409 -413 48 0
-409 413 48 0
-409 -413 -48 0
411 540 -412 0
411 -540 412 0
-411 540 412 0
-411 -540 -412 0
413 -414 0
413 -415 0
413 -416 0
-413 416 415 414 0
-414 419 0
-414 421 0
414 -421 -419 0
-415 418 0
-415 421 0
415 -421 -418 0
-416 418 0
-416 419 0
416 -419 -418 0
417 421 -49 0
417 -421 49 0
-417 421 49 0
-417 -421 -49 0
419 540 -420 0
419 -540 420 0
-419 540 420 0
-419 -540 -420 0
421 -422 0
421 -423 0
421 -424 0
-421 424 423 422 0
-422 427 0
-422 429 0
422 -429 -427 0
-423 426 0
-423 429 0
423 -429 -426 0
-424 426 0
-424 427 0
424 -427 -426 0
425 429 -50 0
425 -429 50 0
-425 429 50 0
-425 -429 -50 0
427 540 -428 0
427 -540 428 0
-427 540 428 0
-427 -540 -428 0
429 -430 0
429 -431 0
429 -432 0
-429 432 431 430 0
-430 435 0
-430 437 0
430 -437 -435 0
-431 434 0
-431 437 0
431 -437 -434 0
-432 434 0
-432 435 0
432 -435 -434 0
433 437 -51 0
433 -437 51 0
-433 437 51 0
-433 -437 -51 0
435 540 -436 0
435 -540 436 0
-435 540 436 0
-435 -540 -436 0
437 -438 0
437 -439 0
437 -440 0
-437 440 439 438 0
-438 443 0
-438 445 0
438 -445 -443 0
-439 442 0
-439 445 0
439 -445 -442 0
-440 442 0
-440 443 0
440 -443 -442 0
441 445 -52 0
441 -445 52 0
-441 445 52 0
-441 -445 -52 0
443 540 -444 0
443 -540 444 0
-443 540 444 0
-443 -540 -444 0
445 -446 0
445 -447 0
445 -448 0
-445 448 447 446 0
-446 451 0
-446 453 0
446 -453 -451 0
-447 450 0
-447 453 0
447 -453 -450 0
-448 450 0
-448 451 0
448 -451 -450 0
449 453 -53 0
449 -453 53 0
-449 453 53 0
-449 -453 -53 0
451 540 -452 0
451 -540 452 0
-451 540 452 0
-451 -540 -452 0
453 -454 0
453 -455 0
453 -456 0
-453 456 455 454 0
-454 459 0
-454 461 0
454 -461 -459 0
-455 458 0
-455 461 0
455 -461 -458 0
-456 458 0
-456 459 0
456 -459 -458 0
457 461 -54 0
457 -461 54 0
-457 461 54 0
-457 -461 -54 0
459 540 -460 0
459 -540 460 0
-459 540 460 0
-459 -540 -460 0
461 -462 0
461 -463 0
461 -464 0
-461 464 463 462 0
-462 467 0
-462 469 0
462 -469 -467 0
-463 466 0
-463 469 0
463 -469 -466 0
-464 466 0
-464 467 0
464 -467 -466 0
465 469 -55 0
465 -469 55 0
-465 469 55 0
-465 -469 -55 0
467 540 -468 0
467 -540 468 0
-467 540 468 0
-467 -540 -468 0
469 -470 0
469 -471 0
469 -472 0
-469 472 471 470 0
-470 475 0
-470 477 0
470 -477 -475 0
-471 474 0
-471 477 0
471 -477 -474 0
-472 474 0
-472 475 0
472 -475 -474 0
473 477 -56 0
473 -477 56 0
-473 477 56 0
-473 -477 -56 0
475 540 -476 0
475 -540 476 0
-475 540 476 0
-475 -540 -476 0
477 -478 0
477 -479 0
477 -480 0
-477 480 479 478 0
-478 483 0
-478 485 0
478 -485 -483 0
-479 482 0
-479 485 0
479 -485 -482 0
-480 482 0
-480 483 0
480 -483 -482 0
481 485 -57 0
481 -485 57 0
-481 485 57 0
-481 -485 -57 0
483 540 -484 0
483 -540 484 0
-483 540 484 0
-483 -540 -484 0
485 -486 0
485 -487 0
485 -488 0
-485 488 487 486 0
-486 491 0
-486 493 0
486 -493 -491 0
-487 490 0
-487 493 0
487 -493 -490 0
-488 490 0
-488 491 0
488 -491 -490 0
489 493 -58 0
489 -493 58 0
-489 493 58 0
-489 -493 -58 0
491 540 -492 0
491 -540 492 0
-491 540 492 0
-491 -540 -492 0
493 -494 0
493 -495 0
493 -496 0
-493 496 495 494 0
-494 499 0
-494 501 0
494 -501 -499 0
-495 498 0
-495 501 0
495 -501 -498 0
-496 498 0
-496 499 0
496 -499 -498 0
497 501 -59 0
497 -501 59 0
-497 501 59 0
-497 -501 -59 0
499 540 -500 0
499 -540 500 0
-499 540 500 0
-499 -540 -500 0
501 -502 0
501 -503 0
501 -504 0
-501 504 503 502 0
-502 507 0
-502 509 0
502 -509 -507 0
-503 506 0
-503 509 0
503 -509 -506 0
-504 506 0
-504 507 0
504 -507 -506 0
505 509 -60 0
505 -509 60 0
-505 509 60 0
-505 -509 -60 0
507 540 -508 0
507 -540 508 0
-507 540 508 0
-507 -540 -508 0
509 -510 0
509 -511 0
509 -512 0
-509 512 511 510 0
-510 515 0
-510 517 0
510 -517 -515 0
-511 514 0
-511 517 0
511 -517 -514 0
-512 514 0
-512 515 0
512 -515 -514 0
513 517 -61 0
513 -517 61 0
-513 517 61 0
-513 -517 -61 0
515 540 -516 0
515 -540 516 0
-515 540 516 0
-515 -540 -516 0
517 -518 0
517 -519 0
517 -520 0
-517 520 519 518 0
-518 523 0
-518 525 0
518 -525 -523 0
-519 522 0
-519 525 0
519 -525 -522 0
-520 522 0
-520 523 0
520 -523 -522 0
521 525 -62 0
521 -525 62 0
-521 525 62 0
-521 -525 -62 0
523 540 -524 0
523 -540 524 0
-523 540 524 0
-523 -540 -524 0
525 -526 0
525 -527 0
525 -528 0
-525 528 527 526 0
-526 531 0
-526 533 0
526 -533 -531 0
-527 530 0
-527 533 0
527 -533 -530 0
-528 530 0
-528 531 0
528 -531 -530 0
529 533 -63 0
529 -533 63 0
-529 533 63 0
-529 -533 -63 0
531 540 -532 0
531 -540 532 0
-531 540 532 0
-531 -540 -532 0
533 -534 0
533 -535 0
533 -536 0
-533 536 535 534 0
-534 539 0
-534 540 0
534 -540 -539 0
-535 538 0
-535 540 0
535 -540 -538 0
-536 538 0
-536 539 0
536 -539 -538 0
537 540 -64 0
537 -540 64 0
-537 540 64 0
-537 -540 -64 0
539 541 -540 0
539 -541 540 0
-539 541 540 0
-539 -541 -540 0